n = 32;
lu = [|-785, 322
      |-939, 141
      |-1023, -703
      |-302, -10
      |79, 747
      |74, 469
      |-706, 646
      |573, 983
      |391, 596
      |-28, 581
      |-519, -338
      |-191, 1013
      |-269, 181
      |305, 990
      |-1012, -334
      |554, 1001
      |-457, -133
      |499, 686
      |-172, 1001
      |-875, 25
      |-57, 869
      |188, 830
      |-678, -63
      |-192, 212
      |-338, -297
      |-764, -43
      |507, 752
      |-958, 534
      |401, 978
      |-328, 15
      |-676, -619
      |-165, 837|];
